(set-logic ALL)
(declare-fun var0 () String)
(assert (str.in_re var0 (re.++ (re.* (re.+ (str.to_re "0"))) (re.++ (re.* (re.* (str.to_re "111"))) (re.++ (re.union (re.* (str.to_re "22")) (re.* (str.to_re "33"))) (re.++ (re.union (re.union (str.to_re "44") (str.to_re "555")) (re.union (str.to_re "666") (str.to_re "77"))) (re.++ (re.* (re.+ (str.to_re "8"))) (re.++ (re.+ (re.+ (str.to_re "9"))) (re.++ (re.union (re.union (str.to_re "a") (str.to_re "bb")) (re.union (str.to_re "c") (str.to_re "dd"))) (re.++ (re.+ (re.+ (str.to_re "e"))) (re.++ (re.* (re.* (str.to_re "f"))) (re.++ (re.* (re.+ (str.to_re "gg"))) (re.++ (re.* (re.+ (str.to_re "hh"))) (re.++ (re.* (re.union (str.to_re "i") (str.to_re "jjj"))) (re.++ (re.+ (re.* (str.to_re "k"))) (re.++ (re.+ (re.* (str.to_re "ll"))) (re.++ (re.* (re.* (str.to_re "mmm"))) (re.++ (re.union (re.* (str.to_re "n")) (re.* (str.to_re "ooo"))) (re.++ (re.* (re.+ (str.to_re "ppp"))) (re.++ (re.union (re.union (str.to_re "qq") (str.to_re "rr")) (re.union (str.to_re "s") (str.to_re "tt"))) (re.++ (re.+ (re.+ (str.to_re "u"))) (re.++ (re.union (re.+ (str.to_re "vv")) (re.+ (str.to_re "ww"))) (re.++ (re.* (re.+ (str.to_re "x"))) (re.++ (re.union (re.* (str.to_re "yy")) (re.* (str.to_re "zzz"))) (re.++ (re.union (re.+ (str.to_re "A")) (re.+ (str.to_re "BBB"))) (re.++ (re.union (re.* (str.to_re "CC")) (re.* (str.to_re "D"))) (re.++ (re.union (re.union (str.to_re "E") (str.to_re "FFF")) (re.union (str.to_re "GG") (str.to_re "HH"))) (re.++ (re.* (re.+ (str.to_re "I"))) (re.++ (re.* (re.+ (str.to_re "JJJ"))) (re.++ (re.+ (re.union (str.to_re "KKK") (str.to_re "LLL"))) (re.++ (re.+ (re.* (str.to_re "M"))) (re.++ (re.+ (re.+ (str.to_re "N"))) (re.+ (re.* (str.to_re "O")))))))))))))))))))))))))))))))))))
(check-sat)